language ESSENCE' 1.0
letting initGrid be [
    [1, 2, 3, 1, 2],
[1, 3, 3, 3, 3],
[1, 4, 5, 4, 3],
[5, 5, 4, 4, 4],
[3, 5, 2, 5, 5],
[1, 5, 1, 3, 2]
    ]
letting goalBlocksRemaining be 4
letting noSteps be 1
